\ Model grid_illumination_variant
\ LP format - for model browsing. Use MPS format to capture full model detail.
Minimize
  x#1#1 + x#1#2 + x#1#3 + x#1#4 + x#1#5 + x#1#6 + x#1#7 + x#1#8 + x#1#9
   + x#1#10 + x#2#1 + x#2#2 + x#2#3 + x#2#4 + x#2#5 + x#2#6 + x#2#7 + x#2#8
   + x#2#9 + x#2#10 + x#3#1 + x#3#2 + x#3#3 + x#3#4 + x#3#5 + x#3#6 + x#3#7
   + x#3#8 + x#3#9 + x#3#10 + x#4#1 + x#4#2 + x#4#3 + x#4#4 + x#4#5 + x#4#6
   + x#4#7 + x#4#8 + x#4#9 + x#4#10 + x#5#1 + x#5#2 + x#5#3 + x#5#4 + x#5#5
   + x#5#6 + x#5#7 + x#5#8 + x#5#9 + x#5#10 + x#6#1 + x#6#2 + x#6#3 + x#6#4
   + x#6#5 + x#6#6 + x#6#7 + x#6#8 + x#6#9 + x#6#10 + x#7#1 + x#7#2 + x#7#3
   + x#7#4 + x#7#5 + x#7#6 + x#7#7 + x#7#8 + x#7#9 + x#7#10 + x#8#1 + x#8#2
   + x#8#3 + x#8#4 + x#8#5 + x#8#6 + x#8#7 + x#8#8 + x#8#9 + x#8#10 + x#9#1
   + x#9#2 + x#9#3 + x#9#4 + x#9#5 + x#9#6 + x#9#7 + x#9#8 + x#9#9 + x#9#10
   + x#10#1 + x#10#2 + x#10#3 + x#10#4 + x#10#5 + x#10#6 + x#10#7 + x#10#8
   + x#10#9 + x#10#10
Subject To
 illumination_4_7: x#3#6 + x#3#7 + x#3#8 + x#4#6 + x#4#8 + x#5#6 + x#5#7
   + x#5#8 - z#4#7 >= 0
 illumination_10_7: x#9#6 + x#9#7 + x#9#8 + x#10#6 + x#10#8 - z#10#7 >= 0
 illumination_10_6: x#9#5 + x#9#6 + x#9#7 + x#10#5 + x#10#7 - z#10#6 >= 0
 illumination_6_8: x#5#7 + x#5#8 + x#5#9 + x#6#7 + x#6#9 + x#7#7 + x#7#8
   + x#7#9 - z#6#8 >= 0
 illumination_3_10: x#2#9 + x#2#10 + x#3#9 + x#4#9 + x#4#10 - z#3#10 >= 0
 illumination_7_9: x#6#8 + x#6#9 + x#6#10 + x#7#8 + x#7#10 + x#8#8 + x#8#9
   + x#8#10 - z#7#9 >= 0
 illumination_4_1: x#3#1 + x#3#2 + x#4#2 + x#5#1 + x#5#2 - z#4#1 >= 0
 illumination_4_10: x#3#9 + x#3#10 + x#4#9 + x#5#9 + x#5#10 - z#4#10 >= 0
 illumination_7_1: x#6#1 + x#6#2 + x#7#2 + x#8#1 + x#8#2 - z#7#1 >= 0
 illumination_3_5: x#2#4 + x#2#5 + x#2#6 + x#3#4 + x#3#6 + x#4#4 + x#4#5
   + x#4#6 - z#3#5 >= 0
 illumination_5_8: x#4#7 + x#4#8 + x#4#9 + x#5#7 + x#5#9 + x#6#7 + x#6#8
   + x#6#9 - z#5#8 >= 0
 illumination_9_7: x#8#6 + x#8#7 + x#8#8 + x#9#6 + x#9#8 + x#10#6 + x#10#7
   + x#10#8 - z#9#7 >= 0
 illumination_8_4: x#7#3 + x#7#4 + x#7#5 + x#8#3 + x#8#5 + x#9#3 + x#9#4
   + x#9#5 - z#8#4 >= 0
 illumination_6_7: x#5#6 + x#5#7 + x#5#8 + x#6#6 + x#6#8 + x#7#6 + x#7#7
   + x#7#8 - z#6#7 >= 0
 illumination_6_10: x#5#9 + x#5#10 + x#6#9 + x#7#9 + x#7#10 - z#6#10 >= 0
 illumination_10_9: x#9#8 + x#9#9 + x#9#10 + x#10#8 + x#10#10 - z#10#9
   >= 0
 illumination_10_10: x#9#9 + x#9#10 + x#10#9 - z#10#10 >= 0
 illumination_5_9: x#4#8 + x#4#9 + x#4#10 + x#5#8 + x#5#10 + x#6#8 + x#6#9
   + x#6#10 - z#5#9 >= 0
 illumination_7_5: x#6#4 + x#6#5 + x#6#6 + x#7#4 + x#7#6 + x#8#4 + x#8#5
   + x#8#6 - z#7#5 >= 0
 illumination_7_8: x#6#7 + x#6#8 + x#6#9 + x#7#7 + x#7#9 + x#8#7 + x#8#8
   + x#8#9 - z#7#8 >= 0
 activation_4_7: z#4#7 <= 0.92
 activation_10_7: z#10#7 <= 0.66
 activation_10_6: z#10#6 <= 0.7
 activation_6_8: z#6#8 <= 1.1
 activation_3_10: z#3#10 <= 1.37
 activation_7_9: z#7#9 <= 0.55
 activation_4_1: z#4#1 <= 0.98
 activation_4_10: z#4#10 <= 0.87
 activation_7_1: z#7#1 <= 1.43
 activation_3_5: z#3#5 <= 1.21
 activation_5_8: z#5#8 <= 1.02
 activation_9_7: z#9#7 <= 0.62
 activation_8_4: z#8#4 <= 0.58
 activation_6_7: z#6#7 <= 0.66
 activation_6_10: z#6#10 <= 0.95
 activation_10_9: z#10#9 <= 1.01
 activation_10_10: z#10#10 <= 1.33
 activation_5_9: z#5#9 <= 0.59
 activation_7_5: z#7#5 <= 1.41
 activation_7_8: z#7#8 <= 1.32
Bounds
Binaries
 x#1#1 x#1#2 x#1#3 x#1#4 x#1#5 x#1#6 x#1#7 x#1#8 x#1#9 x#1#10 x#2#1 x#2#2
 x#2#3 x#2#4 x#2#5 x#2#6 x#2#7 x#2#8 x#2#9 x#2#10 x#3#1 x#3#2 x#3#3 x#3#4
 x#3#5 x#3#6 x#3#7 x#3#8 x#3#9 x#3#10 x#4#1 x#4#2 x#4#3 x#4#4 x#4#5 x#4#6
 x#4#7 x#4#8 x#4#9 x#4#10 x#5#1 x#5#2 x#5#3 x#5#4 x#5#5 x#5#6 x#5#7 x#5#8
 x#5#9 x#5#10 x#6#1 x#6#2 x#6#3 x#6#4 x#6#5 x#6#6 x#6#7 x#6#8 x#6#9 x#6#10
 x#7#1 x#7#2 x#7#3 x#7#4 x#7#5 x#7#6 x#7#7 x#7#8 x#7#9 x#7#10 x#8#1 x#8#2
 x#8#3 x#8#4 x#8#5 x#8#6 x#8#7 x#8#8 x#8#9 x#8#10 x#9#1 x#9#2 x#9#3 x#9#4
 x#9#5 x#9#6 x#9#7 x#9#8 x#9#9 x#9#10 x#10#1 x#10#2 x#10#3 x#10#4 x#10#5
 x#10#6 x#10#7 x#10#8 x#10#9 x#10#10 z#4#7 z#10#7 z#10#6 z#6#8 z#3#10 z#7#9
 z#4#1 z#4#10 z#7#1 z#3#5 z#5#8 z#9#7 z#8#4 z#6#7 z#6#10 z#10#9 z#10#10
 z#5#9 z#7#5 z#7#8
End
